65
1 0 48
2 0 21
2 1 45
3 0 8
3 1 10
3 2 11
4 0 8
4 1 16
4 2 29
4 3 48
5 0 42
5 1 33
5 2 19
5 3 32
5 4 5
6 0 44
6 1 20
6 2 41
6 3 37
6 4 24
6 5 37
7 0 20
7 1 28
7 2 38
7 3 18
7 4 7
7 5 14
7 6 49
8 0 2
8 1 11
8 2 31
8 3 30
8 4 39
8 5 11
8 6 5
8 7 24
9 0 50
9 1 36
9 2 18
9 3 11
9 4 6
9 5 1
9 6 22
9 7 10
9 8 5
10 0 27
10 1 13
10 2 5
10 3 23
10 4 30
10 5 2
10 6 40
10 7 23
10 8 2
10 9 27
11 0 43
11 1 28
11 2 26
11 3 18
11 4 18
11 5 26
11 6 40
11 7 33
11 8 15
11 9 31
11 10 9
12 0 4
12 1 11
12 2 36
12 3 36
12 4 29
12 5 30
12 6 27
12 7 8
12 8 35
12 9 5
12 10 45
12 11 42
13 0 15
13 1 50
13 2 5
13 3 24
13 4 38
13 5 1
13 6 39
13 7 49
13 8 14
13 9 33
13 10 24
13 11 40
13 12 44
14 0 32
14 1 11
14 2 50
14 3 46
14 4 2
14 5 32
14 6 33
14 7 24
14 8 18
14 9 22
14 10 34
14 11 48
14 12 20
14 13 11
15 0 28
15 1 25
15 2 42
15 3 3
15 4 28
15 5 10
15 6 42
15 7 11
15 8 7
15 9 26
15 10 9
15 11 4
15 12 6
15 13 39
15 14 23
16 0 2
16 1 7
16 2 3
16 3 32
16 4 40
16 5 6
16 6 46
16 7 2
16 8 34
16 9 25
16 10 17
16 11 4
16 12 29
16 13 12
16 14 18
16 15 47
17 0 45
17 1 13
17 2 47
17 3 34
17 4 19
17 5 31
17 6 3
17 7 21
17 8 36
17 9 27
17 10 10
17 11 34
17 12 27
17 13 4
17 14 34
17 15 7
17 16 49
18 0 18
18 1 23
18 2 10
18 3 50
18 4 7
18 5 18
18 6 9
18 7 50
18 8 29
18 9 45
18 10 5
18 11 40
18 12 22
18 13 9
18 14 12
18 15 25
18 16 31
18 17 20
19 0 5
19 1 11
19 2 18
19 3 3
19 4 16
19 5 27
19 6 12
19 7 44
19 8 35
19 9 2
19 10 39
19 11 8
19 12 26
19 13 36
19 14 11
19 15 35
19 16 24
19 17 21
19 18 2
20 0 44
20 1 20
20 2 18
20 3 5
20 4 27
20 5 8
20 6 46
20 7 17
20 8 18
20 9 26
20 10 8
20 11 37
20 12 17
20 13 6
20 14 13
20 15 43
20 16 17
20 17 21
20 18 23
20 19 48
21 0 37
21 1 32
21 2 6
21 3 34
21 4 43
21 5 39
21 6 12
21 7 48
21 8 28
21 9 24
21 10 29
21 11 18
21 12 7
21 13 5
21 14 42
21 15 3
21 16 35
21 17 19
21 18 44
21 19 12
21 20 11
22 0 28
22 1 50
22 2 41
22 3 12
22 4 39
22 5 25
22 6 19
22 7 48
22 8 14
22 9 2
22 10 40
22 11 47
22 12 22
22 13 38
22 14 16
22 15 39
22 16 45
22 17 6
22 18 32
22 19 35
22 20 19
22 21 36
23 0 23
23 1 27
23 2 29
23 3 35
23 4 29
23 5 36
23 6 34
23 7 26
23 8 10
23 9 19
23 10 4
23 11 9
23 12 30
23 13 25
23 14 24
23 15 7
23 16 38
23 17 38
23 18 24
23 19 26
23 20 41
23 21 26
23 22 3
24 0 21
24 1 32
24 2 9
24 3 1
24 4 13
24 5 26
24 6 37
24 7 48
24 8 35
24 9 50
24 10 15
24 11 20
24 12 20
24 13 22
24 14 43
24 15 8
24 16 31
24 17 23
24 18 37
24 19 12
24 20 34
24 21 38
24 22 19
24 23 25
25 0 24
25 1 42
25 2 12
25 3 8
25 4 40
25 5 16
25 6 18
25 7 45
25 8 46
25 9 23
25 10 24
25 11 42
25 12 48
25 13 26
25 14 2
25 15 50
25 16 50
25 17 17
25 18 11
25 19 38
25 20 21
25 21 17
25 22 4
25 23 29
25 24 36
26 0 36
26 1 13
26 2 46
26 3 13
26 4 15
26 5 41
26 6 12
26 7 43
26 8 41
26 9 27
26 10 14
26 11 9
26 12 16
26 13 2
26 14 6
26 15 12
26 16 41
26 17 11
26 18 4
26 19 36
26 20 31
26 21 32
26 22 36
26 23 26
26 24 44
26 25 37
27 0 1
27 1 11
27 2 23
27 3 3
27 4 32
27 5 2
27 6 33
27 7 47
27 8 13
27 9 19
27 10 49
27 11 24
27 12 40
27 13 24
27 14 36
27 15 15
27 16 5
27 17 22
27 18 46
27 19 39
27 20 8
27 21 30
27 22 19
27 23 43
27 24 42
27 25 6
27 26 10
28 0 11
28 1 6
28 2 27
28 3 31
28 4 34
28 5 1
28 6 5
28 7 35
28 8 50
28 9 28
28 10 21
28 11 18
28 12 38
28 13 47
28 14 3
28 15 38
28 16 25
28 17 12
28 18 21
28 19 39
28 20 27
28 21 32
28 22 34
28 23 37
28 24 14
28 25 50
28 26 9
28 27 44
29 0 40
29 1 50
29 2 44
29 3 29
29 4 47
29 5 23
29 6 32
29 7 18
29 8 12
29 9 23
29 10 5
29 11 12
29 12 32
29 13 15
29 14 10
29 15 30
29 16 25
29 17 33
29 18 42
29 19 3
29 20 27
29 21 4
29 22 25
29 23 41
29 24 31
29 25 48
29 26 7
29 27 15
29 28 37
30 0 37
30 1 9
30 2 28
30 3 11
30 4 36
30 5 30
30 6 13
30 7 18
30 8 32
30 9 27
30 10 16
30 11 47
30 12 19
30 13 50
30 14 40
30 15 3
30 16 5
30 17 7
30 18 18
30 19 35
30 20 27
30 21 32
30 22 18
30 23 27
30 24 34
30 25 6
30 26 35
30 27 8
30 28 32
30 29 14
31 0 22
31 1 31
31 2 44
31 3 33
31 4 25
31 5 50
31 6 33
31 7 36
31 8 23
31 9 19
31 10 28
31 11 6
31 12 18
31 13 22
31 14 27
31 15 6
31 16 9
31 17 33
31 18 42
31 19 15
31 20 7
31 21 28
31 22 27
31 23 35
31 24 25
31 25 40
31 26 31
31 27 13
31 28 34
31 29 44
31 30 11
32 0 27
32 1 37
32 2 36
32 3 38
32 4 20
32 5 1
32 6 32
32 7 31
32 8 25
32 9 24
32 10 4
32 11 30
32 12 10
32 13 25
32 14 24
32 15 42
32 16 12
32 17 29
32 18 50
32 19 21
32 20 49
32 21 25
32 22 42
32 23 39
32 24 24
32 25 1
32 26 37
32 27 9
32 28 18
32 29 46
32 30 25
32 31 26
33 0 16
33 1 45
33 2 45
33 3 48
33 4 47
33 5 9
33 6 6
33 7 37
33 8 42
33 9 3
33 10 36
33 11 48
33 12 27
33 13 15
33 14 42
33 15 32
33 16 29
33 17 3
33 18 40
33 19 12
33 20 29
33 21 17
33 22 39
33 23 2
33 24 26
33 25 38
33 26 43
33 27 31
33 28 10
33 29 35
33 30 39
33 31 6
33 32 42
34 0 8
34 1 7
34 2 37
34 3 16
34 4 4
34 5 45
34 6 1
34 7 8
34 8 43
34 9 28
34 10 8
34 11 33
34 12 13
34 13 6
34 14 15
34 15 32
34 16 45
34 17 37
34 18 25
34 19 30
34 20 17
34 21 48
34 22 9
34 23 21
34 24 4
34 25 35
34 26 35
34 27 41
34 28 3
34 29 12
34 30 36
34 31 5
34 32 35
34 33 17
35 0 20
35 1 6
35 2 19
35 3 35
35 4 36
35 5 22
35 6 43
35 7 41
35 8 15
35 9 43
35 10 9
35 11 39
35 12 24
35 13 6
35 14 2
35 15 22
35 16 35
35 17 20
35 18 20
35 19 14
35 20 22
35 21 35
35 22 18
35 23 31
35 24 4
35 25 22
35 26 50
35 27 11
35 28 28
35 29 37
35 30 3
35 31 16
35 32 37
35 33 16
35 34 28
36 0 27
36 1 36
36 2 50
36 3 34
36 4 27
36 5 31
36 6 50
36 7 34
36 8 49
36 9 31
36 10 41
36 11 22
36 12 18
36 13 1
36 14 12
36 15 1
36 16 40
36 17 46
36 18 36
36 19 18
36 20 41
36 21 32
36 22 18
36 23 2
36 24 34
36 25 43
36 26 48
36 27 25
36 28 31
36 29 21
36 30 8
36 31 23
36 32 27
36 33 47
36 34 22
36 35 4
37 0 28
37 1 41
37 2 27
37 3 25
37 4 26
37 5 15
37 6 30
37 7 28
37 8 32
37 9 36
37 10 7
37 11 34
37 12 34
37 13 1
37 14 30
37 15 34
37 16 11
37 17 48
37 18 42
37 19 25
37 20 8
37 21 8
37 22 23
37 23 26
37 24 25
37 25 19
37 26 6
37 27 31
37 28 43
37 29 40
37 30 30
37 31 17
37 32 16
37 33 22
37 34 14
37 35 48
37 36 33
38 0 31
38 1 10
38 2 36
38 3 6
38 4 26
38 5 39
38 6 17
38 7 5
38 8 36
38 9 3
38 10 7
38 11 16
38 12 36
38 13 3
38 14 2
38 15 35
38 16 39
38 17 14
38 18 5
38 19 41
38 20 12
38 21 40
38 22 34
38 23 33
38 24 26
38 25 18
38 26 34
38 27 43
38 28 17
38 29 24
38 30 16
38 31 6
38 32 36
38 33 9
38 34 24
38 35 8
38 36 2
38 37 18
39 0 37
39 1 6
39 2 7
39 3 21
39 4 8
39 5 8
39 6 3
39 7 48
39 8 47
39 9 34
39 10 9
39 11 38
39 12 12
39 13 46
39 14 35
39 15 39
39 16 43
39 17 44
39 18 34
39 19 34
39 20 29
39 21 36
39 22 6
39 23 26
39 24 13
39 25 50
39 26 3
39 27 45
39 28 6
39 29 26
39 30 11
39 31 30
39 32 42
39 33 31
39 34 42
39 35 22
39 36 10
39 37 10
39 38 2
40 0 11
40 1 28
40 2 42
40 3 23
40 4 21
40 5 16
40 6 25
40 7 1
40 8 32
40 9 13
40 10 15
40 11 22
40 12 18
40 13 16
40 14 37
40 15 21
40 16 2
40 17 10
40 18 29
40 19 44
40 20 14
40 21 48
40 22 18
40 23 32
40 24 30
40 25 12
40 26 10
40 27 12
40 28 13
40 29 9
40 30 12
40 31 2
40 32 3
40 33 40
40 34 1
40 35 32
40 36 45
40 37 26
40 38 31
40 39 16
41 0 35
41 1 16
41 2 17
41 3 4
41 4 6
41 5 14
41 6 6
41 7 19
41 8 34
41 9 40
41 10 15
41 11 30
41 12 43
41 13 43
41 14 6
41 15 4
41 16 36
41 17 31
41 18 4
41 19 6
41 20 16
41 21 41
41 22 14
41 23 7
41 24 15
41 25 19
41 26 11
41 27 7
41 28 41
41 29 9
41 30 29
41 31 1
41 32 5
41 33 13
41 34 49
41 35 21
41 36 15
41 37 20
41 38 12
41 39 7
41 40 3
42 0 15
42 1 34
42 2 13
42 3 30
42 4 26
42 5 19
42 6 39
42 7 27
42 8 3
42 9 50
42 10 43
42 11 9
42 12 5
42 13 26
42 14 25
42 15 5
42 16 18
42 17 23
42 18 9
42 19 34
42 20 13
42 21 35
42 22 15
42 23 29
42 24 21
42 25 37
42 26 5
42 27 47
42 28 29
42 29 25
42 30 3
42 31 35
42 32 45
42 33 9
42 34 44
42 35 40
42 36 50
42 37 39
42 38 45
42 39 36
42 40 25
42 41 8
43 0 49
43 1 27
43 2 33
43 3 9
43 4 44
43 5 50
43 6 26
43 7 31
43 8 10
43 9 43
43 10 36
43 11 22
43 12 22
43 13 23
43 14 35
43 15 23
43 16 4
43 17 30
43 18 2
43 19 21
43 20 13
43 21 42
43 22 12
43 23 7
43 24 44
43 25 4
43 26 2
43 27 48
43 28 47
43 29 47
43 30 9
43 31 5
43 32 26
43 33 3
43 34 12
43 35 21
43 36 44
43 37 38
43 38 36
43 39 22
43 40 10
43 41 21
43 42 47
44 0 5
44 1 12
44 2 25
44 3 49
44 4 16
44 5 3
44 6 15
44 7 41
44 8 17
44 9 3
44 10 22
44 11 40
44 12 32
44 13 24
44 14 9
44 15 25
44 16 22
44 17 7
44 18 39
44 19 49
44 20 30
44 21 20
44 22 16
44 23 48
44 24 15
44 25 25
44 26 13
44 27 17
44 28 19
44 29 11
44 30 1
44 31 6
44 32 44
44 33 24
44 34 41
44 35 24
44 36 34
44 37 41
44 38 20
44 39 4
44 40 23
44 41 10
44 42 4
44 43 12
45 0 24
45 1 7
45 2 48
45 3 38
45 4 26
45 5 44
45 6 32
45 7 41
45 8 30
45 9 45
45 10 35
45 11 45
45 12 30
45 13 24
45 14 21
45 15 36
45 16 26
45 17 37
45 18 46
45 19 33
45 20 35
45 21 13
45 22 42
45 23 12
45 24 2
45 25 34
45 26 25
45 27 30
45 28 34
45 29 23
45 30 39
45 31 44
45 32 1
45 33 46
45 34 12
45 35 6
45 36 13
45 37 3
45 38 32
45 39 7
45 40 4
45 41 48
45 42 15
45 43 18
45 44 42
46 0 34
46 1 8
46 2 24
46 3 25
46 4 1
46 5 38
46 6 31
46 7 7
46 8 20
46 9 6
46 10 22
46 11 45
46 12 43
46 13 22
46 14 5
46 15 28
46 16 48
46 17 49
46 18 1
46 19 6
46 20 46
46 21 38
46 22 11
46 23 11
46 24 30
46 25 28
46 26 14
46 27 1
46 28 34
46 29 41
46 30 19
46 31 4
46 32 27
46 33 9
46 34 1
46 35 18
46 36 28
46 37 27
46 38 4
46 39 17
46 40 47
46 41 15
46 42 44
46 43 32
46 44 47
46 45 1
47 0 36
47 1 7
47 2 26
47 3 24
47 4 24
47 5 2
47 6 33
47 7 50
47 8 22
47 9 29
47 10 35
47 11 33
47 12 41
47 13 13
47 14 36
47 15 25
47 16 1
47 17 43
47 18 21
47 19 2
47 20 42
47 21 28
47 22 27
47 23 27
47 24 30
47 25 44
47 26 21
47 27 4
47 28 17
47 29 27
47 30 12
47 31 6
47 32 18
47 33 47
47 34 8
47 35 12
47 36 43
47 37 18
47 38 25
47 39 11
47 40 17
47 41 42
47 42 19
47 43 35
47 44 3
47 45 22
47 46 33
48 0 50
48 1 46
48 2 6
48 3 6
48 4 43
48 5 1
48 6 37
48 7 7
48 8 8
48 9 27
48 10 38
48 11 20
48 12 49
48 13 48
48 14 28
48 15 9
48 16 23
48 17 9
48 18 42
48 19 26
48 20 17
48 21 2
48 22 41
48 23 4
48 24 12
48 25 49
48 26 45
48 27 41
48 28 37
48 29 22
48 30 42
48 31 20
48 32 17
48 33 27
48 34 7
48 35 6
48 36 21
48 37 30
48 38 38
48 39 49
48 40 45
48 41 26
48 42 9
48 43 39
48 44 17
48 45 39
48 46 17
48 47 40
49 0 26
49 1 45
49 2 47
49 3 6
49 4 46
49 5 27
49 6 16
49 7 32
49 8 20
49 9 21
49 10 43
49 11 38
49 12 6
49 13 42
49 14 19
49 15 33
49 16 37
49 17 37
49 18 18
49 19 9
49 20 47
49 21 49
49 22 26
49 23 28
49 24 9
49 25 44
49 26 31
49 27 13
49 28 11
49 29 48
49 30 50
49 31 2
49 32 27
49 33 13
49 34 25
49 35 47
49 36 3
49 37 49
49 38 38
49 39 27
49 40 25
49 41 2
49 42 46
49 43 46
49 44 19
49 45 6
49 46 24
49 47 12
49 48 31
50 0 1
50 1 16
50 2 29
50 3 2
50 4 14
50 5 47
50 6 33
50 7 17
50 8 48
50 9 28
50 10 36
50 11 15
50 12 18
50 13 10
50 14 12
50 15 16
50 16 22
50 17 43
50 18 36
50 19 32
50 20 21
50 21 50
50 22 27
50 23 31
50 24 2
50 25 20
50 26 23
50 27 2
50 28 22
50 29 45
50 30 29
50 31 21
50 32 2
50 33 32
50 34 30
50 35 33
50 36 44
50 37 37
50 38 35
50 39 25
50 40 30
50 41 26
50 42 31
50 43 38
50 44 39
50 45 45
50 46 24
50 47 8
50 48 22
50 49 18
51 0 19
51 1 16
51 2 40
51 3 36
51 4 16
51 5 5
51 6 38
51 7 25
51 8 15
51 9 33
51 10 33
51 11 40
51 12 3
51 13 28
51 14 49
51 15 42
51 16 46
51 17 43
51 18 32
51 19 26
51 20 9
51 21 22
51 22 27
51 23 47
51 24 23
51 25 11
51 26 26
51 27 16
51 28 2
51 29 42
51 30 23
51 31 8
51 32 25
51 33 20
51 34 17
51 35 15
51 36 41
51 37 23
51 38 9
51 39 15
51 40 27
51 41 33
51 42 40
51 43 24
51 44 22
51 45 16
51 46 50
51 47 11
51 48 3
51 49 46
51 50 25
52 0 25
52 1 3
52 2 27
52 3 39
52 4 50
52 5 6
52 6 33
52 7 35
52 8 45
52 9 38
52 10 19
52 11 19
52 12 12
52 13 29
52 14 37
52 15 50
52 16 42
52 17 33
52 18 9
52 19 10
52 20 33
52 21 48
52 22 13
52 23 23
52 24 22
52 25 13
52 26 38
52 27 26
52 28 44
52 29 36
52 30 2
52 31 37
52 32 28
52 33 12
52 34 37
52 35 2
52 36 34
52 37 15
52 38 11
52 39 34
52 40 6
52 41 25
52 42 4
52 43 6
52 44 14
52 45 31
52 46 34
52 47 38
52 48 47
52 49 28
52 50 38
52 51 7
53 0 4
53 1 15
53 2 18
53 3 6
53 4 8
53 5 12
53 6 31
53 7 38
53 8 28
53 9 10
53 10 19
53 11 23
53 12 2
53 13 44
53 14 14
53 15 6
53 16 26
53 17 45
53 18 14
53 19 23
53 20 22
53 21 24
53 22 18
53 23 2
53 24 25
53 25 20
53 26 47
53 27 7
53 28 34
53 29 36
53 30 27
53 31 9
53 32 32
53 33 36
53 34 22
53 35 32
53 36 3
53 37 38
53 38 11
53 39 4
53 40 25
53 41 43
53 42 46
53 43 46
53 44 36
53 45 41
53 46 41
53 47 16
53 48 30
53 49 23
53 50 11
53 51 6
53 52 12
54 0 38
54 1 33
54 2 17
54 3 35
54 4 45
54 5 23
54 6 30
54 7 26
54 8 13
54 9 33
54 10 31
54 11 45
54 12 13
54 13 26
54 14 32
54 15 21
54 16 6
54 17 20
54 18 22
54 19 24
54 20 25
54 21 18
54 22 3
54 23 35
54 24 2
54 25 9
54 26 44
54 27 22
54 28 28
54 29 19
54 30 8
54 31 33
54 32 28
54 33 21
54 34 26
54 35 3
54 36 39
54 37 22
54 38 42
54 39 8
54 40 31
54 41 43
54 42 22
54 43 41
54 44 6
54 45 1
54 46 47
54 47 13
54 48 5
54 49 18
54 50 35
54 51 27
54 52 34
54 53 4
55 0 40
55 1 14
55 2 1
55 3 17
55 4 16
55 5 45
55 6 10
55 7 49
55 8 1
55 9 29
55 10 37
55 11 44
55 12 37
55 13 1
55 14 37
55 15 6
55 16 17
55 17 25
55 18 46
55 19 27
55 20 30
55 21 31
55 22 10
55 23 33
55 24 44
55 25 12
55 26 12
55 27 31
55 28 7
55 29 3
55 30 15
55 31 47
55 32 25
55 33 47
55 34 7
55 35 12
55 36 47
55 37 3
55 38 13
55 39 49
55 40 18
55 41 23
55 42 10
55 43 3
55 44 12
55 45 17
55 46 44
55 47 38
55 48 34
55 49 26
55 50 20
55 51 27
55 52 26
55 53 38
55 54 21
56 0 20
56 1 40
56 2 31
56 3 18
56 4 46
56 5 40
56 6 30
56 7 42
56 8 15
56 9 16
56 10 7
56 11 8
56 12 44
56 13 5
56 14 11
56 15 41
56 16 4
56 17 27
56 18 14
56 19 12
56 20 32
56 21 35
56 22 42
56 23 10
56 24 26
56 25 50
56 26 10
56 27 44
56 28 5
56 29 22
56 30 39
56 31 9
56 32 18
56 33 22
56 34 6
56 35 43
56 36 7
56 37 46
56 38 37
56 39 43
56 40 42
56 41 35
56 42 17
56 43 25
56 44 49
56 45 39
56 46 32
56 47 32
56 48 25
56 49 49
56 50 22
56 51 49
56 52 44
56 53 37
56 54 19
56 55 47
57 0 19
57 1 17
57 2 21
57 3 4
57 4 38
57 5 42
57 6 11
57 7 36
57 8 31
57 9 15
57 10 39
57 11 11
57 12 7
57 13 16
57 14 6
57 15 20
57 16 28
57 17 33
57 18 40
57 19 39
57 20 5
57 21 42
57 22 31
57 23 28
57 24 48
57 25 33
57 26 35
57 27 40
57 28 26
57 29 14
57 30 40
57 31 49
57 32 50
57 33 7
57 34 42
57 35 2
57 36 12
57 37 43
57 38 28
57 39 26
57 40 14
57 41 6
57 42 49
57 43 15
57 44 36
57 45 41
57 46 11
57 47 16
57 48 28
57 49 18
57 50 30
57 51 5
57 52 21
57 53 24
57 54 16
57 55 43
57 56 31
58 0 20
58 1 50
58 2 36
58 3 33
58 4 44
58 5 37
58 6 16
58 7 35
58 8 27
58 9 43
58 10 29
58 11 22
58 12 33
58 13 6
58 14 39
58 15 12
58 16 9
58 17 14
58 18 43
58 19 28
58 20 33
58 21 17
58 22 40
58 23 3
58 24 16
58 25 20
58 26 28
58 27 34
58 28 37
58 29 32
58 30 35
58 31 44
58 32 18
58 33 23
58 34 41
58 35 35
58 36 14
58 37 32
58 38 19
58 39 16
58 40 43
58 41 23
58 42 34
58 43 10
58 44 45
58 45 44
58 46 38
58 47 9
58 48 42
58 49 16
58 50 45
58 51 2
58 52 43
58 53 24
58 54 33
58 55 13
58 56 50
58 57 25
59 0 30
59 1 6
59 2 36
59 3 10
59 4 28
59 5 20
59 6 19
59 7 12
59 8 32
59 9 14
59 10 34
59 11 27
59 12 27
59 13 6
59 14 49
59 15 9
59 16 40
59 17 16
59 18 4
59 19 27
59 20 10
59 21 21
59 22 42
59 23 37
59 24 5
59 25 10
59 26 35
59 27 14
59 28 43
59 29 10
59 30 4
59 31 32
59 32 21
59 33 16
59 34 9
59 35 9
59 36 27
59 37 46
59 38 23
59 39 21
59 40 27
59 41 4
59 42 12
59 43 6
59 44 18
59 45 36
59 46 38
59 47 49
59 48 24
59 49 21
59 50 49
59 51 15
59 52 36
59 53 44
59 54 37
59 55 3
59 56 8
59 57 31
59 58 1
60 0 44
60 1 39
60 2 40
60 3 47
60 4 48
60 5 20
60 6 8
60 7 39
60 8 13
60 9 45
60 10 12
60 11 6
60 12 49
60 13 10
60 14 42
60 15 20
60 16 23
60 17 11
60 18 49
60 19 23
60 20 6
60 21 28
60 22 44
60 23 3
60 24 40
60 25 13
60 26 46
60 27 16
60 28 34
60 29 14
60 30 20
60 31 39
60 32 40
60 33 39
60 34 31
60 35 50
60 36 45
60 37 22
60 38 35
60 39 30
60 40 29
60 41 17
60 42 1
60 43 38
60 44 33
60 45 48
60 46 8
60 47 19
60 48 3
60 49 25
60 50 45
60 51 2
60 52 9
60 53 34
60 54 34
60 55 42
60 56 2
60 57 23
60 58 15
60 59 3
61 0 32
61 1 28
61 2 46
61 3 14
61 4 49
61 5 22
61 6 41
61 7 11
61 8 2
61 9 26
61 10 7
61 11 25
61 12 24
61 13 27
61 14 42
61 15 8
61 16 42
61 17 12
61 18 25
61 19 26
61 20 35
61 21 6
61 22 28
61 23 38
61 24 40
61 25 31
61 26 19
61 27 19
61 28 15
61 29 3
61 30 3
61 31 20
61 32 33
61 33 17
61 34 46
61 35 36
61 36 27
61 37 6
61 38 5
61 39 20
61 40 7
61 41 46
61 42 30
61 43 27
61 44 31
61 45 20
61 46 47
61 47 44
61 48 26
61 49 47
61 50 3
61 51 36
61 52 16
61 53 48
61 54 50
61 55 19
61 56 36
61 57 42
61 58 49
61 59 30
61 60 2
62 0 16
62 1 22
62 2 13
62 3 49
62 4 35
62 5 14
62 6 28
62 7 37
62 8 14
62 9 28
62 10 36
62 11 44
62 12 38
62 13 8
62 14 19
62 15 36
62 16 32
62 17 13
62 18 28
62 19 7
62 20 44
62 21 31
62 22 39
62 23 1
62 24 9
62 25 6
62 26 37
62 27 31
62 28 35
62 29 43
62 30 37
62 31 36
62 32 20
62 33 38
62 34 21
62 35 12
62 36 39
62 37 48
62 38 42
62 39 46
62 40 44
62 41 33
62 42 48
62 43 46
62 44 16
62 45 36
62 46 34
62 47 26
62 48 2
62 49 13
62 50 22
62 51 28
62 52 8
62 53 29
62 54 45
62 55 43
62 56 32
62 57 32
62 58 1
62 59 5
62 60 2
62 61 31
63 0 36
63 1 43
63 2 43
63 3 19
63 4 45
63 5 24
63 6 11
63 7 47
63 8 38
63 9 18
63 10 41
63 11 4
63 12 4
63 13 36
63 14 27
63 15 44
63 16 24
63 17 37
63 18 45
63 19 44
63 20 35
63 21 46
63 22 29
63 23 36
63 24 4
63 25 39
63 26 18
63 27 45
63 28 14
63 29 23
63 30 23
63 31 5
63 32 30
63 33 42
63 34 45
63 35 27
63 36 22
63 37 47
63 38 31
63 39 3
63 40 45
63 41 10
63 42 18
63 43 29
63 44 28
63 45 22
63 46 16
63 47 44
63 48 36
63 49 46
63 50 26
63 51 21
63 52 46
63 53 29
63 54 4
63 55 9
63 56 20
63 57 30
63 58 47
63 59 44
63 60 37
63 61 36
63 62 39
64 0 8
64 1 48
64 2 40
64 3 46
64 4 15
64 5 39
64 6 2
64 7 42
64 8 1
64 9 39
64 10 18
64 11 24
64 12 2
64 13 38
64 14 47
64 15 50
64 16 23
64 17 24
64 18 15
64 19 24
64 20 21
64 21 21
64 22 50
64 23 4
64 24 20
64 25 29
64 26 42
64 27 44
64 28 3
64 29 14
64 30 23
64 31 23
64 32 33
64 33 16
64 34 31
64 35 42
64 36 23
64 37 8
64 38 14
64 39 26
64 40 9
64 41 7
64 42 20
64 43 15
64 44 14
64 45 21
64 46 27
64 47 38
64 48 42
64 49 26
64 50 43
64 51 8
64 52 33
64 53 36
64 54 33
64 55 50
64 56 46
64 57 16
64 58 30
64 59 50
64 60 13
64 61 41
64 62 40
64 63 49
